letting n_nurses=25
letting n_days=7
letting n_shift_types=4
letting max_covers=11
letting t_covers=87
letting covers=[8,8,3,0,11,8,4,0,4,5,9,0,1,1,0,0,2,1,1,0,9,5,4,0,0,2,1,0]
letting prefes=[2,2,1,3,4,1,1,4,2,2,1,3,4,1,1,4,4,1,1,4,4,1,1,4,4,1,1,4,2,1,1,3,1,1,4,1,2,1,1,3,1,1,4,1,1,1,4,1,1,1,4,1,1,1,4,1,2,2,3,3,4,3,4,4,2,2,3,3,4,3,4,4,4,3,4,4,4,3,4,4,4,3,4,4,2,2,1,3,4,3,4,4,2,2,1,3,4,3,4,4,4,3,4,4,4,3,4,4,4,3,4,4,1,1,1,3,1,1,1,1,1,1,1,3,1,1,1,1,1,1,1,1,1,1,1,1,1,1,1,1,2,1,1,3,1,3,1,1,2,1,1,3,1,3,1,1,1,3,1,1,1,3,1,1,1,3,1,1,2,2,3,3,4,3,1,4,2,2,3,3,4,3,1,4,4,3,1,4,4,3,1,4,4,3,1,4,2,2,3,3,4,3,1,4,2,2,3,3,4,3,1,4,4,3,1,4,4,3,1,4,4,3,1,4,2,2,1,3,4,3,1,4,2,2,1,3,4,3,1,4,4,3,1,4,4,3,1,4,4,3,1,4,1,2,1,3,4,3,1,4,1,2,1,3,4,3,1,4,4,3,1,4,4,3,1,4,4,3,1,4,2,2,1,3,4,3,1,4,2,2,1,3,4,3,1,4,4,3,1,4,4,3,1,4,4,3,1,4,2,2,1,3,4,3,1,4,2,2,1,3,4,3,1,4,4,3,1,4,4,3,1,4,4,3,1,4,2,1,1,3,4,3,1,4,2,1,1,3,4,3,1,4,4,3,1,4,4,3,1,4,4,3,1,4,2,2,1,3,1,3,1,1,2,2,1,3,1,3,1,1,1,3,1,1,1,3,1,1,1,3,1,1,2,2,3,3,4,3,4,4,2,2,3,3,4,3,4,4,4,3,4,4,4,3,4,4,4,3,4,4,2,2,1,1,4,3,1,4,2,2,1,1,4,3,1,4,4,3,1,4,4,3,1,4,4,3,1,4,2,2,1,3,1,1,1,1,2,2,1,3,1,1,1,1,1,1,1,1,1,1,1,1,1,1,1,1,1,2,1,3,4,3,1,4,1,2,1,3,4,3,1,4,4,3,1,4,4,3,1,4,4,3,1,4,2,2,1,3,4,3,1,4,2,2,1,3,4,3,1,4,4,3,1,4,4,3,1,4,4,3,1,4,2,2,1,1,4,1,4,4,2,2,1,1,4,1,4,4,4,1,4,4,4,1,4,4,4,1,4,4,2,2,3,3,4,3,1,4,2,2,3,3,4,3,1,4,4,3,1,4,4,3,1,4,4,3,1,4,2,2,1,3,4,3,1,4,2,2,1,3,4,3,1,4,4,3,1,4,4,3,1,4,4,3,1,4,2,2,1,1,4,3,1,4,2,2,1,1,4,3,1,4,4,3,1,4,4,3,1,4,4,3,1,4,1,1,1,1,4,3,1,4,1,1,1,1,4,3,1,4,4,3,1,4,4,3,1,4,4,3,1,4,1,2,1,1,4,3,1,4,1,2,1,1,4,3,1,4,4,3,1,4,4,3,1,4,4,3,1,4]
letting ub =  
